Line_mode KPOINTS file
1
Line_mode
Reciprocal
0.0 0.0 0.0 ! \Gamma
0.375730485769285 -0.624269514230715 0.375730485769285 ! P

0.375730485769285 -0.624269514230715 0.375730485769285 ! P
0.5 -0.5 0.5 ! Z

0.5 -0.5 0.5 ! Z
0.2514609715385701 0.2514609715385701 0.2514609715385701 ! Q

0.2514609715385701 0.2514609715385701 0.2514609715385701 ! Q
0.0 0.0 0.0 ! \Gamma

0.0 0.0 0.0 ! \Gamma
0.5 -0.5 0.0 ! F

0.5 -0.5 0.0 ! F
0.624269514230715 -0.375730485769285 -0.375730485769285 ! P_1

0.624269514230715 -0.375730485769285 -0.375730485769285 ! P_1
0.74853902846143 -0.2514609715385701 -0.2514609715385701 ! Q_1

0.74853902846143 -0.2514609715385701 -0.2514609715385701 ! Q_1
0.5 0.0 0.0 ! L

0.5 0.0 0.0 ! L
0.5 -0.5 0.5 ! Z

