Cs1
1.0
-3.042498 -3.080617 3.026682
-3.041899 3.064812 -3.041870
3.026712 -3.080631 -3.042485
Cs
1
direct
0.000025 0.000006 0.999997 Cs
